StudentsNr = 10;
InstructorsNr = 5;
DaysNr = 2;
SlotsPerDay = 15;
AvailabilitySlotsLenght = 3;
RoomNr = 2;
ProgrammNr = 2;
DegreeNr = 1;
RolesNr = 3;
CoursesNr = 10;
InstructorsProgramm = [{1}, {1, 2}, {1, 2}, {2}, {1}];
InstructorRolesPerProgramm = [|{3, 5}, {3}, {3, 5}|{3, 4}, {3}, {3}|];
InstructorsAvailability = [|0, 1, 1, 1, 1, 1, 1, 1, 1, 1, |0, 1, 1, 1, 1, 1, 1, 1, 1, 1, |0, 0, 0, 1, 1, 1, 1, 1, 1, 1, |1, 1, 1, 1, 1, 0, 1, 1, 1, 1, |1, 1, 1, 1, 1, 0, 0, 0, 1, 1|];
StudentsProgramm = [1, 1, 1, 1, 1, 2, 1, 1, 1, 2];
StudentsDegree = [1, 1, 1, 1, 1, 1, 1, 1, 1, 1];
StudentsSupervisorId = [2, 1, 5, 2, 2, 4, 2, 1, 2, 4];
StudentsCourseIds = [{1, 2, 4, 6, 7, 8, 9}, {1, 2, 3, 4, 6, 8, 9}, {1, 3, 4, 5, 7, 8, 10}, {1, 2, 4, 5, 6, 8, 9}, {2, 3, 5, 6, 8, 9, 10}, {1, 3, 5, 6, 7, 9, 10}, {1, 2, 4, 6, 8, 9, 10}, {2, 3, 4, 5, 6, 8, 9}, {1, 4, 5, 6, 7, 9, 10}, {1, 2, 3, 4, 5, 6, 10}];
StudentsAvailability = [|0, 0, 1, 1, 1, 1, 1, 1, 1, 1, |0, 0, 0, 0, 1, 1, 1, 1, 1, 1, |1, 1, 0, 1, 1, 1, 1, 1, 0, 1, |0, 1, 1, 0, 0, 0, 0, 1, 1, 1, |0, 0, 0, 1, 1, 1, 0, 0, 1, 1, |0, 1, 1, 1, 1, 1, 1, 1, 0, 1, |1, 1, 1, 1, 1, 1, 1, 1, 1, 1, |1, 1, 1, 1, 1, 0, 1, 1, 1, 1, |0, 0, 1, 0, 0, 0, 0, 0, 1, 1, |1, 1, 1, 1, 1, 1, 1, 1, 1, 1|];
TheoryticalMinCard = [4, 3, 3, 4, 3, 3, 3, 3, 5, 2];
CoursesInstructorIds = [{2, 4}, {3, 4, 5}, {5}, {5}, {1, 4}, {1, 2, 4}, {1}, {1, 3, 5}, {1, 2}, {1, 2, 3, 4, 5}];
RolesDemands = [1, 1, 1];
RolesContinuity = [];
ExamLen = [2, 2, 2, 2, 2, 2, 2, 2, 2, 2];
LunchTsMinLen = 0;
LunchStarts = [4..10, 19..23];
SupervisorAvailable = 5;
OptimalLunchLenght = [0, 1];
OptimalStartTs = [1, 0];
OptimalFinishTs = [1, 14];
MinimizeRooms = 200;
RolesSoftContinuity = [|1, 2, 3|3, 4, 4|];
SameDegreeInRoom = 0;
Mergeability = 1;
